# Solution for model r3_t9_m0_4
# Finished Task: 9 / 9
# Makespan: 556.0, Total Distance: 270.0, Total Time: 0.4082
# R O S F
0 0 3 21.0 21.0
1 1 9 99.0 99.0
2 2 10 0.0 0.0
3 0 7 380.0 410.0
4 1 -1 498.0 527.0
5 2 11 380.0 407.0
6 0 -1 522.0 556.0
7 0 6 472.0 498.0
8 1 4 249.0 275.0
9 1 8 133.0 171.0
10 2 5 341.0 368.0
11 2 -1 434.0 472.0
